171
0
3
4
8
14
15
159
16
21
36
157
33
34
35
156
40
45
44
46
47
48
73
77
1
2
111
112
132
133
152
142
149
161
10
76
74
75
11
12
37
49
170
38
39
155
41
42
56
64
57
62
61
66
63
68
167
70
87
86
107
106
105
97
163
98
95
165
104
113
115
116
119
146
145
144
143
147
148
138
139
140
141
6
13
17
18
19
20
158
32
31
30
27
28
29
22
23
26
24
25
150
160
151
7
9
5
169
166
93
92
91
94
96
99
100
101
102
103
117
118
162
123
122
120
121
124
135
134
164
127
126
125
129
136
137
128
130
131
110
109
114
108
83
84
71
50
51
52
53
43
55
54
58
59
60
69
67
65
88
153
154
89
90
85
168
72
78
82
79
80
81
0